\ LP format - for model browsing. Use MPS format to capture full model detail.
Maximize
  x_1 + 6 x_2 + 4 x_3 + 7 x_4 + 8 x_5 + 6 x_6 + 3 x_7 + 8 x_8 + x_9 + x_10
   + 7 x_11 + 5 x_12 + 4 x_13 + 2 x_14 + x_15
Subject To
 C_1: 6 x_1 + 6 x_2 + 9 x_6 + 8 x_13 <= 14
 C_2: 5 x_2 + 7 x_4 + 3 x_5 + 10 x_14 + 9 x_15 <= 17
 C_3: x_4 + 7 x_6 + 6 x_7 + 2 x_9 + 2 x_13 + 2 x_14 + 4 x_15 <= 12
 C_4: x_1 + 2 x_2 + 3 x_4 + x_7 + x_8 + 6 x_9 + 10 x_10 + 8 x_11 + 9 x_12
   + 2 x_14 + 3 x_15 <= 23
 C_5: 4 x_2 + 10 x_4 + 3 x_6 + 6 x_7 + 8 x_10 + 10 x_12 + 7 x_13 + 8 x_14
   + 10 x_15 <= 33
 C_6: 9 x_2 + 8 x_7 + x_8 + 9 x_12 + 8 x_13 <= 17
 C_7: 2 x_2 + 4 x_8 + 5 x_15 <= 5
 C_8: 2 x_2 + 8 x_5 + 4 x_7 + 8 x_8 + 2 x_9 + x_14 + 3 x_15 <= 14
 C_9: 6 x_1 + 2 x_2 + 10 x_5 + 10 x_7 + 8 x_8 + 5 x_11 <= 20
 C_10: 3 x_1 + 8 x_2 + 3 x_5 + 7 x_6 + 4 x_7 + 2 x_8 + 10 x_9 + 7 x_10
   + 6 x_12 + 5 x_15 <= 27
Bounds
Binaries
 x_1 x_2 x_3 x_4 x_5 x_6 x_7 x_8 x_9 x_10 x_11 x_12 x_13 x_14 x_15
End
